Transaction Hash,Status,Method,Blockno,DateTime (UTC),From,From_Nametag,To,To_Nametag,Value,Txn Fee
"0x21bf190ae63a054be5d79a71ce10dfee0e3fe84bdaeaedee6a3ef5725a92709c","Success","Update","15192694","2022-07-22 13:43:39","0x10121cb2b3f64f0a6231178336aca3e3b87d5ca5","","0x049b51e531fd8f90da6d92ea83dc4125002f20ef","","0 ETH","0.00235292"
"0xf88b3d56db40970542bead7172e76e715e512dc7a63783960672a138458b78ee","Success","Update","15192671","2022-07-22 13:38:09","0x10121cb2b3f64f0a6231178336aca3e3b87d5ca5","","0x049b51e531fd8f90da6d92ea83dc4125002f20ef","","0 ETH","0.00275721"
"0x5142a2cdcc7bb438a42487df9df9b2803ed0ed3a4f7e4a25f75968397f0c2db3","Success","Update","15192655","2022-07-22 13:33:38","0x10121cb2b3f64f0a6231178336aca3e3b87d5ca5","","0x049b51e531fd8f90da6d92ea83dc4125002f20ef","","0 ETH","0.0014333"
"0x40dd91775a38b3a43afaea3ae6c5b8038ee8aeee3aed56361c297b6b21d6ed4b","Success","Prove And Process","15192610","2022-07-22 13:23:47","0x9973fc8f6cfe06f27438f37581b1aa179dcec67f","","0x049b51e531fd8f90da6d92ea83dc4125002f20ef","","0 ETH","0.00226617"
"0x3a8fc2dd73df8895e452bc2c81e1a48f7d7338c47b83846039eb05edc6d606ea","Success","Prove And Process","15192608","2022-07-22 13:23:37","0xeddcc6d7b1c4174ca3ec1e683e9ec03f7fd942a1","","0x049b51e531fd8f90da6d92ea83dc4125002f20ef","","0 ETH","0.0020335"
"0x98855dc8c651f9be2a24553ba435ce2e0b80ed3c2314013ab23232f9e1c48a14","Success","Prove And Process","15192584","2022-07-22 13:19:14","0x9ebfb95b29abc3285fe75c20476a2bfcd4ee24f6","ganderwolf.eth","0x049b51e531fd8f90da6d92ea83dc4125002f20ef","","0 ETH","0.00278322"
"0x7ff47e01c2eeea2f907f98a3bf1f49730a9ab4305f4a7c2c9229f9be224f97d9","Success","Prove And Process","15192470","2022-07-22 12:53:19","0x44aac8a5450461b39eabfa1ca0758ff73498d7f9","","0x049b51e531fd8f90da6d92ea83dc4125002f20ef","","0 ETH","0.00208729"
"0x6f7f84ba3452de3b98eeb8344172bf28753e5e4084fa1c9b7b65ae331f401cd3","Success","Update","15192456","2022-07-22 12:51:43","0x10121cb2b3f64f0a6231178336aca3e3b87d5ca5","","0x049b51e531fd8f90da6d92ea83dc4125002f20ef","","0 ETH","0.00141588"
"0x1b2c52cbbf5f7e3114b443187e703a7f96fd207300741c8aecaa99fc968a55b8","Success","Update","15192437","2022-07-22 12:46:29","0x10121cb2b3f64f0a6231178336aca3e3b87d5ca5","","0x049b51e531fd8f90da6d92ea83dc4125002f20ef","","0 ETH","0.00207014"
"0xae641b128bf0744d804d5778198f73c96a02e4c1a9632f21ad313deff9a20549","Success","Update","15192379","2022-07-22 12:31:43","0x10121cb2b3f64f0a6231178336aca3e3b87d5ca5","","0x049b51e531fd8f90da6d92ea83dc4125002f20ef","","0 ETH","0.00141738"
"0x7e6043b810d068aa5c863e04218bebf439627affc8a9e936094c2cb350a7db94","Success","Update","15192330","2022-07-22 12:19:53","0x10121cb2b3f64f0a6231178336aca3e3b87d5ca5","","0x049b51e531fd8f90da6d92ea83dc4125002f20ef","","0 ETH","0.00105028"
"0xabbdc50d2c8f4736f3fac4efb9c0e9697208dea6d4af8e63873a30c4415c9253","Success","Prove And Process","15192321","2022-07-22 12:17:50","0x06a4ed9e4d6ea181cf300daa914008a03ce49579","harekrishna2588.eth","0x049b51e531fd8f90da6d92ea83dc4125002f20ef","","0 ETH","0.00191503"
"0x5230fa17de36fb6e7ca6e9c08732115ef59471958c71c2a6de2feabf01c37d9b","Success","Prove And Process","15192315","2022-07-22 12:16:11","0x495e884946e5de7376c575bb6a17ffe47ded2590","ekovonmises.eth","0x049b51e531fd8f90da6d92ea83dc4125002f20ef","","0 ETH","0.00151715"
"0xbe06be717925d6e315303b0e7a7c0ece79459da835d38e7bb665a9438b712571","Success","Prove And Process","15192227","2022-07-22 11:57:55","0x658a362da6937e6a6ac2b91aaf7489db43c4da4b","","0x049b51e531fd8f90da6d92ea83dc4125002f20ef","","0 ETH","0.00137414"
"0x9f0a2d8eccc70f84d65bee1b54f35ef854ebdbc162b78134fd2ce374d58747ba","Success","Prove And Process","15192226","2022-07-22 11:57:44","0xe419366c77cf616b00db339ec3e41d397889eb30","","0x049b51e531fd8f90da6d92ea83dc4125002f20ef","","0 ETH","0.00128779"
"0xd64191b9ae14b16ac437accd9434d18b4ed49bf3f66adbc1d8f3e5af5967dd61","Success","Prove And Process","15192117","2022-07-22 11:32:40","0x07832fe18133354e3aca3d67b954d1cc1e497f3e","","0x049b51e531fd8f90da6d92ea83dc4125002f20ef","","0 ETH","0.00100785"
"0xd56e8a1dc07f4ca0d88c669c647f0eff1eb4bd66b690cc683645468af00bbbe4","Success","Prove And Process","15192108","2022-07-22 11:31:43","0x65a2a2ae90e8766fa2e7e233bc5de91e0451e511","","0x049b51e531fd8f90da6d92ea83dc4125002f20ef","","0 ETH","0.00126178"
"0x12705e581e5820f5f80fd409873f480b0ba375e5c84ee2acbba313abd25fd37c","Success","Update","15192039","2022-07-22 11:17:55","0x10121cb2b3f64f0a6231178336aca3e3b87d5ca5","","0x049b51e531fd8f90da6d92ea83dc4125002f20ef","","0 ETH","0.0010565"
"0x5d0485ea09861fef4e70800b8c40a7c7ba0ebbcb1deb80be61dd7faac9021f04","Success","Update","15191740","2022-07-22 10:11:04","0x10121cb2b3f64f0a6231178336aca3e3b87d5ca5","","0x049b51e531fd8f90da6d92ea83dc4125002f20ef","","0 ETH","0.00127236"
"0x9b0a8a417e66dc47ff59cc78a54db2ef8dafb9cbd5792b0f7c9d76162ded9265","Success","Update","15191718","2022-07-22 10:05:32","0x10121cb2b3f64f0a6231178336aca3e3b87d5ca5","","0x049b51e531fd8f90da6d92ea83dc4125002f20ef","","0 ETH","0.00120204"
"0xb5bc27f05ae0ff0eef3f3ef2ed147e9f79bd256040428e129cab9f867618b1fb","Success","Update","15191693","2022-07-22 10:00:51","0x10121cb2b3f64f0a6231178336aca3e3b87d5ca5","","0x049b51e531fd8f90da6d92ea83dc4125002f20ef","","0 ETH","0.00098274"
"0x32e7bf6affda4aa76048cda0322bd3c185f301ebeb0e16638281c3a1c17087cb","Success","Prove And Process","15191672","2022-07-22 09:55:57","0x6a81c50289f16a7e556385d6bab17707e2ea23c5","abrahamvon.eth","0x049b51e531fd8f90da6d92ea83dc4125002f20ef","","0 ETH","0.00162845"
"0xbc010fe6294981cac181a4d41b24fe667a43c588a143dc2c680f816d4aa3f6d4","Success","Update","15191459","2022-07-22 09:10:22","0x10121cb2b3f64f0a6231178336aca3e3b87d5ca5","","0x049b51e531fd8f90da6d92ea83dc4125002f20ef","","0 ETH","0.00127177"
"0x39928d7030431ca5f7c48574755e2f3139cf40af5ffc9b6111f9144c059979f3","Success","Update","15191431","2022-07-22 09:05:07","0x10121cb2b3f64f0a6231178336aca3e3b87d5ca5","","0x049b51e531fd8f90da6d92ea83dc4125002f20ef","","0 ETH","0.00151074"
"0xbbf358096f0d3098aa9f2d4c2f0c6929d12d1c9ed4dc5ff7c922b680031bd540","Success","Prove And Process","15191397","2022-07-22 08:56:29","0xe1e1d4c09eabfddcc8a342bca93c60b60ed87e4c","","0x049b51e531fd8f90da6d92ea83dc4125002f20ef","","0 ETH","0.00168429"
"0x7bf124b2b3322386fafe817d4c37104c2a0abf642b9c404312a71c0462c6808f","Success","Prove And Process","15191368","2022-07-22 08:50:14","0xce0dacf937391b8a52138f758fa7040cf8c5d182","denlay.eth","0x049b51e531fd8f90da6d92ea83dc4125002f20ef","","0 ETH","0.00194966"
"0x38144a50d7cafaa87fd49279a7ca704e83e9787c2503f069c755cd15c2a11292","Success","Prove And Process","15191251","2022-07-22 08:24:27","0x502a9fc51ecb47232ae64d431a6f728c259f23ce","0000000000000000000000000000001.eth","0x049b51e531fd8f90da6d92ea83dc4125002f20ef","","0 ETH","0.00153122"
"0x8944ca2fab9de42ce8d0666d55729c862da6262b535e10c4334299698d45408b","Success","Update","15191118","2022-07-22 07:53:22","0x10121cb2b3f64f0a6231178336aca3e3b87d5ca5","","0x049b51e531fd8f90da6d92ea83dc4125002f20ef","","0 ETH","0.00146286"
"0x54631bdbc3521d868bc1e05b94047500d900067f8135e8539355584761894034","Success","Update","15191004","2022-07-22 07:25:12","0x10121cb2b3f64f0a6231178336aca3e3b87d5ca5","","0x049b51e531fd8f90da6d92ea83dc4125002f20ef","","0 ETH","0.0007415"
"0xed42931ae5842f523d44686727352a0f4e5dd54680e3da7c7f8bee108085ce09","Success","Prove And Process","15190888","2022-07-22 06:56:45","0x18e92faead9e7ba45ca96665033ae5f99dcd82f2","sunshineboylaowang.eth","0x049b51e531fd8f90da6d92ea83dc4125002f20ef","","0 ETH","0.00214054"
"0xa889d5be4df3a199eafa78944db7f50f21d8cd6bbd50ab0518e2278c12fe8d27","Success","Update","15190856","2022-07-22 06:48:19","0x10121cb2b3f64f0a6231178336aca3e3b87d5ca5","","0x049b51e531fd8f90da6d92ea83dc4125002f20ef","","0 ETH","0.00117783"
"0xc2529873b287b8285a35ad96f3eb50da525a219b1b6fc91ecd4cbc34b5ce9fbd","Success","Prove And Process","15190829","2022-07-22 06:41:26","0x522ea58a06842817a18b1fc6e2311c3c24094181","ethmagician.eth","0x049b51e531fd8f90da6d92ea83dc4125002f20ef","","0 ETH","0.00203126"
"0xc4ff27fcfbbceaa84cc3292f691239f983eba6c83a44f7d043d32b96b836286a","Success","Update","15190759","2022-07-22 06:25:00","0x10121cb2b3f64f0a6231178336aca3e3b87d5ca5","","0x049b51e531fd8f90da6d92ea83dc4125002f20ef","","0 ETH","0.00122963"
"0x9d4e269bbb9e6e605f56260c61b452f36af3ddb71412a2608f0fb32743728939","Success","Update","15190698","2022-07-22 06:09:50","0x10121cb2b3f64f0a6231178336aca3e3b87d5ca5","","0x049b51e531fd8f90da6d92ea83dc4125002f20ef","","0 ETH","0.00141526"
"0x11621c52cb63e3b8ae284a34ee6136b754e5debed2daf71ef35c0ce6641a2fff","Success","Prove And Process","15190153","2022-07-22 04:03:01","0xf0c09d91aa30e491e1a3a20c6fd35838257e2648","","0x049b51e531fd8f90da6d92ea83dc4125002f20ef","","0 ETH","0.00171038"
"0xddb45126960ba40731c1c324e61fa6c4a34b8aca427f6cfd58f23456f0effa6d","Success","Prove And Process","15190087","2022-07-22 03:48:07","0x11573bc2152e215ed3071d7668084518cbbed215","360official.eth","0x049b51e531fd8f90da6d92ea83dc4125002f20ef","","0 ETH","0.00254463"
"0x1a99273186c2316834c09374afbe37fd00fad5c08de69b0b7ac681f4d597f584","Success","Update","15189993","2022-07-22 03:23:21","0x10121cb2b3f64f0a6231178336aca3e3b87d5ca5","","0x049b51e531fd8f90da6d92ea83dc4125002f20ef","","0 ETH","0.0013119"
"0x588f026cb13979ffc3cfcebe2e34267c40b0f474d52bd02ec0433b72162ad7fc","Success","Update","15189742","2022-07-22 02:32:02","0x10121cb2b3f64f0a6231178336aca3e3b87d5ca5","","0x049b51e531fd8f90da6d92ea83dc4125002f20ef","","0 ETH","0.00103143"
"0x66bf45037d871f3574483bdaa4c3ad5fd81946016c606a53fd0f1eacd2176d61","Success","Prove And Process","15189695","2022-07-22 02:22:50","0x8b6545e4fd7d5cc858be7ad449f88ef1b2f7a577","","0x049b51e531fd8f90da6d92ea83dc4125002f20ef","","0 ETH","0.00307502"
"0x529330502e22923207f480415c01a9b940fe13ebc516400f40ec50d0d02617d1","Success","Update","15189553","2022-07-22 01:51:53","0x10121cb2b3f64f0a6231178336aca3e3b87d5ca5","","0x049b51e531fd8f90da6d92ea83dc4125002f20ef","","0 ETH","0.00158669"
"0xd91a41085b1f4e4c73b3bdc09453ab36558dbd18d71e9fb01a0f885a36f1c794","Success","Prove And Process","15189494","2022-07-22 01:35:47","0x4973a485673723182ba71b3e898a7d0c42f106c8","liuleyi.eth","0x049b51e531fd8f90da6d92ea83dc4125002f20ef","","0 ETH","0.00293034"
"0xc8054501f45784ea964f68ab23dd572fa5ec5bdec9d6c07701bd461c7ee10b0a","Success","Prove And Process","15189412","2022-07-22 01:14:13","0x00c3a76523f699c84735d6acc2e2d9e33173aa63","","0x049b51e531fd8f90da6d92ea83dc4125002f20ef","","0 ETH","0.00271643"
"0x10b68a66ed287c22d58b38b9103bbc24a7b6838391409cac1501a840b219f11d","Success","Prove And Process","15189374","2022-07-22 01:04:08","0x499509f16254f1f38bff25d50b9075beeee080b9","","0x049b51e531fd8f90da6d92ea83dc4125002f20ef","","0 ETH","0.00271232"
"0x2817f25d2b5f809ad1846974d1d30e707b94a175992dc4c4f992cd42bb13487a","Success","Prove And Process","15189371","2022-07-22 01:03:15","0x65a2a2ae90e8766fa2e7e233bc5de91e0451e511","","0x049b51e531fd8f90da6d92ea83dc4125002f20ef","","0 ETH","0.0025302"
"0x1a8947f351acae7f60277120d58c80ea4adaf570e0676c60781780994f1b7f5a","Success","Update","15189277","2022-07-22 00:43:08","0x10121cb2b3f64f0a6231178336aca3e3b87d5ca5","","0x049b51e531fd8f90da6d92ea83dc4125002f20ef","","0 ETH","0.00159219"
"0x75a5d7a1475ebe4d0e84321a9f7d3b38420501bf1fbd3e7f769f4499d9acdbc8","Success","Update","15189257","2022-07-22 00:38:07","0x10121cb2b3f64f0a6231178336aca3e3b87d5ca5","","0x049b51e531fd8f90da6d92ea83dc4125002f20ef","","0 ETH","0.00195646"
"0x1d60daad74c132e495c8ea189601fdd0bff023a1fdbd1fc67b5842652a44ee59","Success","Prove And Process","15189180","2022-07-22 00:21:06","0xa64c30981ae629ac9e2d5f11b006426e0536c9b3","","0x049b51e531fd8f90da6d92ea83dc4125002f20ef","","0 ETH","0.00271659"
"0x7dc4fdecc61b25fc27d3010369b5d4cfcc88dfef850b02e5735586675d5c5912","Success","Update","15188867","2022-07-21 23:11:09","0x10121cb2b3f64f0a6231178336aca3e3b87d5ca5","","0x049b51e531fd8f90da6d92ea83dc4125002f20ef","","0 ETH","0.0012059"
"0x44c2d1f7ccba7aeede5dbcff215c32c111f42b0b6cd784616c0f8e9611100fea","Success","Prove And Process","15188665","2022-07-21 22:25:57","0x704e77a88fc557576b65c2807be354133813a02c","cx0303.eth","0x049b51e531fd8f90da6d92ea83dc4125002f20ef","","0 ETH","0.00175437"
"0x4bd14450de2910b1fe5ac1eb3dd1f36094bd2090e6bacae1302ad75dba56cd17","Success","Prove And Process","15188610","2022-07-21 22:13:54","0x88ce43b0c597db8d669dbd75613210abba416bc9","chinchillidae.eth","0x049b51e531fd8f90da6d92ea83dc4125002f20ef","","0 ETH","0.00295635"
"0x54ca4ab52facca7bc69ac3f1c65930bdd7a2fbb5077701dfeea1fbd176e411f8","Error in Main Txn : execution reverted","Prove And Process","15188544","2022-07-21 21:59:38","0xa98c42662a3d6a4cee8d0e0983a9800a843cce74","","0x049b51e531fd8f90da6d92ea83dc4125002f20ef","","0 ETH","0.0006935"
"0x8face029141eaf857d2466997dfb13e1b5e388157fdb0acb31eddbd6eb3f39e2","Success","Prove And Process","15188543","2022-07-21 21:59:06","0xa98c42662a3d6a4cee8d0e0983a9800a843cce74","","0x049b51e531fd8f90da6d92ea83dc4125002f20ef","","0 ETH","0.0025461"
"0x0ad976bdf6c475bf1f40e5a72f2f0f137b6010a54b4f7131cb38216348f697e6","Success","Prove And Process","15188434","2022-07-21 21:38:27","0xe0b2026e3db1606ef0beb764ccdf7b3cee30db4a","","0x049b51e531fd8f90da6d92ea83dc4125002f20ef","","0 ETH","0.00481904"
"0x8eb49827a2ca2b4f3c6fb2954a4ddc12a18bc56ba9cd20e096ba373ca3e73282","Success","Update","15188235","2022-07-21 20:53:34","0x10121cb2b3f64f0a6231178336aca3e3b87d5ca5","","0x049b51e531fd8f90da6d92ea83dc4125002f20ef","","0 ETH","0.00285167"
"0x5f9c61435b00297420515c1c41d00ea96326f3fa9983c651004c2ad462450e0c","Success","Update","15187565","2022-07-21 18:31:11","0x10121cb2b3f64f0a6231178336aca3e3b87d5ca5","","0x049b51e531fd8f90da6d92ea83dc4125002f20ef","","0 ETH","0.00165721"
"0xefa75c49e143337ceee02480dba579316e64bfbda0d4a5f9d722aaf21ee72a67","Success","Update","15187441","2022-07-21 18:06:23","0x10121cb2b3f64f0a6231178336aca3e3b87d5ca5","","0x049b51e531fd8f90da6d92ea83dc4125002f20ef","","0 ETH","0.0030223"
"0x41a90a060506e64ee5a7e07490f720f01773cc23388d5f9db728419c7a0bc244","Error in Main Txn : execution reverted","Prove And Process","15187319","2022-07-21 17:39:25","0xcee9c0d960b6c6c509cc3413172a4ff59bf21cd5","","0x049b51e531fd8f90da6d92ea83dc4125002f20ef","","0 ETH","0.00138279"
"0x9b6c28568a7385166d2e2cafa14d2140ac28fb033c0b1dab811fd14b6acbde6b","Success","Prove And Process","15187319","2022-07-21 17:39:25","0xcee9c0d960b6c6c509cc3413172a4ff59bf21cd5","","0x049b51e531fd8f90da6d92ea83dc4125002f20ef","","0 ETH","0.00563076"
"0xe28df7cf2e354fe7aa3293e5f50eb48e7da2ea9724c47016a75b17faf16da8ba","Success","Prove And Process","15187213","2022-07-21 17:14:58","0xbd929843f285905be474191f44585c2f9c14668a","","0x049b51e531fd8f90da6d92ea83dc4125002f20ef","","0 ETH","0.00306205"
"0xc81e4f9a2fc4b69c9fd684323a83e09b7c50c2d7f5107dcde185a84918027acc","Success","Update","15187195","2022-07-21 17:11:55","0x10121cb2b3f64f0a6231178336aca3e3b87d5ca5","","0x049b51e531fd8f90da6d92ea83dc4125002f20ef","","0 ETH","0.0020824"
"0x840856232e9cac349141463e4dbb90c93312cb3a60a15c28ab1ea8209b416680","Success","Update","15187118","2022-07-21 16:58:34","0x10121cb2b3f64f0a6231178336aca3e3b87d5ca5","","0x049b51e531fd8f90da6d92ea83dc4125002f20ef","","0 ETH","0.00316651"
"0x40fa8fb342e0877b7ac0e5dc084ab02d3de1925f6a488d72704750cf55e2f6ca","Success","Update","15187057","2022-07-21 16:43:33","0x10121cb2b3f64f0a6231178336aca3e3b87d5ca5","","0x049b51e531fd8f90da6d92ea83dc4125002f20ef","","0 ETH","0.00250949"
"0x57a8778f818e4a6fc2227f45de4d002632585438fc4176d10d0bcda7c89a7321","Success","Prove And Process","15186764","2022-07-21 15:40:59","0x42e84c5ec649e439f86e1e705a30e5c559f4a279","angrizzly.eth","0x049b51e531fd8f90da6d92ea83dc4125002f20ef","","0 ETH","0.0055893"
"0x501690002bf0c6ff963bc3da37f681c4c4faf49489f1cdcf378d7bb35150933a","Success","Prove And Process","15186691","2022-07-21 15:23:24","0x956a2725e42dd701ef115bab50a06ee5bb9da8c2","","0x049b51e531fd8f90da6d92ea83dc4125002f20ef","","0 ETH","0.00702264"
"0x6720e69ab652a4fa58c48470ff037d22a889d8b8f1565bc12e2a7fa275e63696","Success","Update","15186598","2022-07-21 15:04:37","0x10121cb2b3f64f0a6231178336aca3e3b87d5ca5","","0x049b51e531fd8f90da6d92ea83dc4125002f20ef","","0 ETH","0.00837124"
"0xc038ee4cefb0ddf06dad4ac3073a35e6bc35617e3507b0790d82fbe0bbbc053c","Success","Update","15186525","2022-07-21 14:47:28","0x10121cb2b3f64f0a6231178336aca3e3b87d5ca5","","0x049b51e531fd8f90da6d92ea83dc4125002f20ef","","0 ETH","0.00418759"
"0xb06c76c474fd1cce5ab32c9d60263eedaaad3b9fabd58134f5b83b9a08cbb04c","Success","Update","15186254","2022-07-21 13:51:14","0x10121cb2b3f64f0a6231178336aca3e3b87d5ca5","","0x049b51e531fd8f90da6d92ea83dc4125002f20ef","","0 ETH","0.00207275"
"0x015f4c39e8bd8b00c48ac4fa39c79a4602a503371e898634d6c048a37f74e984","Error in Main Txn : execution reverted","Prove And Process","15186156","2022-07-21 13:26:47","0xdbae96e97d00256a09322e1c49f062cb8bebb0f0","habibu.eth","0x049b51e531fd8f90da6d92ea83dc4125002f20ef","","0 ETH","0.00074121"
"0xa4e4e8d0bbb7b0311b605181f5f1feb5b1ea3d448c359a2414f58117973371f2","Success","Prove And Process","15186155","2022-07-21 13:26:40","0xdbae96e97d00256a09322e1c49f062cb8bebb0f0","habibu.eth","0x049b51e531fd8f90da6d92ea83dc4125002f20ef","","0 ETH","0.00282917"
"0xf80e9c15e5ceadb3d134c054bdd71e8cf9c8df46067f79350b13fe220036d964","Success","Prove And Process","15186128","2022-07-21 13:20:38","0x495e884946e5de7376c575bb6a17ffe47ded2590","ekovonmises.eth","0x049b51e531fd8f90da6d92ea83dc4125002f20ef","","0 ETH","0.0028341"
"0x487d45be6c93167ac7ffe0c62e9789152cb272280f9c4e25054ec352fdaa8c36","Success","Prove And Process","15186067","2022-07-21 13:08:14","0xe1e11cbaafa39b8b1b2f17985d644d93a610cb5d","satuduatigaempat.eth","0x049b51e531fd8f90da6d92ea83dc4125002f20ef","","0 ETH","0.00313616"
"0x6ae35d5d8b596c91d076ad4ddec8f7ad969fb9187c7d1cbfa1ca4c95a19029cc","Success","Prove And Process","15186053","2022-07-21 13:04:30","0xa53bc8cc850a6bdb5007c67bd39468202b5980c7","","0x049b51e531fd8f90da6d92ea83dc4125002f20ef","","0 ETH","0.00263124"
"0x5dd0ee7e7a8558d485cd93d53799e176507ec6e0ecaab69ad780aa44f18d2360","Success","Update","15186001","2022-07-21 12:54:04","0x10121cb2b3f64f0a6231178336aca3e3b87d5ca5","","0x049b51e531fd8f90da6d92ea83dc4125002f20ef","","0 ETH","0.00245644"
"0xc5fded6195a3b7b6ab7d09e74946d9634b4afcef7a09cd88ef5af3a29fe61024","Success","Update","15185985","2022-07-21 12:48:51","0x10121cb2b3f64f0a6231178336aca3e3b87d5ca5","","0x049b51e531fd8f90da6d92ea83dc4125002f20ef","","0 ETH","0.00184143"
"0x80da25ef779b67c8be971bc6434ed0968589c9ce22190f2838e9f09a704142aa","Success","Prove And Process","15185962","2022-07-21 12:41:06","0x6a81c50289f16a7e556385d6bab17707e2ea23c5","abrahamvon.eth","0x049b51e531fd8f90da6d92ea83dc4125002f20ef","","0 ETH","0.00211886"
"0xdb35b9cafbc318dc7535123ab6551952c33ac2317517f9fa5b0c86b7d629d73b","Success","Prove And Process","15185831","2022-07-21 12:14:39","0x40d5d25d34c18b5cf0ca828a13f851ecc31f6773","2021th.eth","0x049b51e531fd8f90da6d92ea83dc4125002f20ef","","0 ETH","0.00154946"
"0xf9a8fdffefda364c681f444fc4b81b0d3f6b737862718520d73b03ee0ab25b97","Success","Update","15185724","2022-07-21 11:51:53","0x10121cb2b3f64f0a6231178336aca3e3b87d5ca5","","0x049b51e531fd8f90da6d92ea83dc4125002f20ef","","0 ETH","0.00148019"
"0x2dadd1b0bb79086b904ccb03becc3401b2f5a1914218c9637ad1ab36e81c6e1a","Success","Prove And Process","15185648","2022-07-21 11:35:32","0xdbae96e97d00256a09322e1c49f062cb8bebb0f0","habibu.eth","0x049b51e531fd8f90da6d92ea83dc4125002f20ef","","0 ETH","0.00470826"
"0xec49cb23d6b162c79e415f9ba6e2df8fa61b74a6c2f086e659cef24100f7aafd","Success","Prove And Process","15185639","2022-07-21 11:32:23","0x805f4862794228f404d45982cc7bc8ede9540903","autonics.eth","0x049b51e531fd8f90da6d92ea83dc4125002f20ef","","0 ETH","0.00413904"
"0xf3ccde2615c9cdd5abda279f462f4a3a4da3057528c55318473e6ae483606b61","Success","Prove And Process","15185638","2022-07-21 11:32:09","0x197446f31c1b9d13f434c619347ca38b9d594224","","0x049b51e531fd8f90da6d92ea83dc4125002f20ef","","0 ETH","0.00399235"
"0xfe1db9a573cc91f0bd8ecbbb34b06d0b921461ac1689de3e16d17fcd628566ed","Error in Main Txn : execution reverted","Prove And Process","15185635","2022-07-21 11:31:08","0x40d5d25d34c18b5cf0ca828a13f851ecc31f6773","2021th.eth","0x049b51e531fd8f90da6d92ea83dc4125002f20ef","","0 ETH","0.00340162"
"0x81ea1925682df9c6e2aef21dda05a2298741a462ad5845ae82abea26c743effd","Success","Prove And Process","15185634","2022-07-21 11:31:04","0xbaffe7325f708d8b10e3bd0b6de95193bf2b9f9f","potapoz.eth","0x049b51e531fd8f90da6d92ea83dc4125002f20ef","","0 ETH","0.00343097"
"0x678f6a15a6c2e20056e17174e4062af2893dab6575e30c1d3605dcac1f8d2a7c","Success","Prove And Process","15185632","2022-07-21 11:30:34","0x1533328f6212e07a26f4cea90789d621b14b7346","hashtask.eth","0x049b51e531fd8f90da6d92ea83dc4125002f20ef","","0 ETH","0.00336391"
"0x1743323ab470fa5821b2feb148dcd9770195b10b0456a87286601952aa285306","Success","Update","15185620","2022-07-21 11:27:51","0x10121cb2b3f64f0a6231178336aca3e3b87d5ca5","","0x049b51e531fd8f90da6d92ea83dc4125002f20ef","","0 ETH","0.00170427"
"0xbcdbeec2d31077143a2aa69c6804e2fbcc3d8b7152d28d73c4b4075636f59645","Success","Update","15185428","2022-07-21 10:41:31","0x10121cb2b3f64f0a6231178336aca3e3b87d5ca5","","0x049b51e531fd8f90da6d92ea83dc4125002f20ef","","0 ETH","0.00111607"
"0x6a968716b53be29184dfd73751d48f4856a99ce4f8fef44552df29b9ec15b763","Success","Update","15185408","2022-07-21 10:36:22","0x10121cb2b3f64f0a6231178336aca3e3b87d5ca5","","0x049b51e531fd8f90da6d92ea83dc4125002f20ef","","0 ETH","0.00102494"
"0x190891b28407e584a88130058f6a3d257c29d183f489b1842d20570929b782cd","Success","Update","15185371","2022-07-21 10:27:41","0x10121cb2b3f64f0a6231178336aca3e3b87d5ca5","","0x049b51e531fd8f90da6d92ea83dc4125002f20ef","","0 ETH","0.00124888"
"0x22985cf30ac730d38a02c56c6732111f252b30bd3cdccb44afa6ad113ef0d05b","Success","Update","15185350","2022-07-21 10:22:33","0x10121cb2b3f64f0a6231178336aca3e3b87d5ca5","","0x049b51e531fd8f90da6d92ea83dc4125002f20ef","","0 ETH","0.0011136"
"0xb0016a3dc6f3b3f8af3ec568bae99312891b728162fa33cb8e78d75f21cb8b1d","Success","Update","15185186","2022-07-21 09:46:09","0x10121cb2b3f64f0a6231178336aca3e3b87d5ca5","","0x049b51e531fd8f90da6d92ea83dc4125002f20ef","","0 ETH","0.00177553"
"0xccbca47aca7df9fe28e4b7e22d777c0cb1198de00de3cf98ebf9b9e784dc7f0f","Success","Prove And Process","15185018","2022-07-21 09:07:24","0xec05c427760fb53531c1d3238438a9318c2d9803","","0x049b51e531fd8f90da6d92ea83dc4125002f20ef","","0 ETH","0.00254237"
"0xdd6cb6fe383f1ecd1f6a565749550bb57cdba835b1167ded3b89a6302ad73c24","Success","Prove And Process","15184905","2022-07-21 08:40:56","0xce0dacf937391b8a52138f758fa7040cf8c5d182","denlay.eth","0x049b51e531fd8f90da6d92ea83dc4125002f20ef","","0 ETH","0.00258986"
"0x3ee6c981ecaea61bad34f9d9e4402cb524b21debce9ec5e1d8f1713c4e1fb10d","Success","Prove And Process","15184874","2022-07-21 08:31:38","0x6675b4bb3b67967397e150ef5e8b758347755188","","0x049b51e531fd8f90da6d92ea83dc4125002f20ef","","0 ETH","0.00200069"
"0x21bc4de901eeb105f21aaed7e0bbc831370e80c1b4b9265e0a2d62560b6efa1c","Success","Update","15184825","2022-07-21 08:20:55","0x10121cb2b3f64f0a6231178336aca3e3b87d5ca5","","0x049b51e531fd8f90da6d92ea83dc4125002f20ef","","0 ETH","0.0014793"
"0xc88d4e8a8e1697c79e0ad71a5b24f4e1ff0a76d5ac88fae6c1a82f6b26f7fc59","Success","Update","15184803","2022-07-21 08:15:34","0x10121cb2b3f64f0a6231178336aca3e3b87d5ca5","","0x049b51e531fd8f90da6d92ea83dc4125002f20ef","","0 ETH","0.00095237"
"0x8794bdee49c622f6047de5382f4cc2156b199e81326a22b7cc4885f630f3e4ab","Success","Update","15184719","2022-07-21 07:58:51","0x10121cb2b3f64f0a6231178336aca3e3b87d5ca5","","0x049b51e531fd8f90da6d92ea83dc4125002f20ef","","0 ETH","0.00106137"
"0x057ce90b7e2a2ac47495578f398e890bb5e7f14c6ff671dfb55bb86477ec97f3","Success","Update","15184687","2022-07-21 07:52:15","0x10121cb2b3f64f0a6231178336aca3e3b87d5ca5","","0x049b51e531fd8f90da6d92ea83dc4125002f20ef","","0 ETH","0.00108453"
"0xf9f66155215f04c64324745c7f484189c895944b5c976eb308262c0d54a88cba","Success","Prove And Process","15184640","2022-07-21 07:41:51","0x6f3064d973c08dd9c88d43080549f474e5827d71","cjcjcj.eth","0x049b51e531fd8f90da6d92ea83dc4125002f20ef","","0 ETH","0.00238291"
"0x66062c786811dd3e6c1f34dcd770ca0ee86028b07730675e71ebc4f9306edaf5","Success","Prove And Process","15184620","2022-07-21 07:38:38","0x9fadef2323461963a833cec4507bea002f86e417","","0x049b51e531fd8f90da6d92ea83dc4125002f20ef","","0 ETH","0.00343188"
"0x0bdca82f5ca7a155ddd377bd7a8fa7f11f0f89884a1fb647de67512a9e208902","Success","Update","15184506","2022-07-21 07:09:20","0x10121cb2b3f64f0a6231178336aca3e3b87d5ca5","","0x049b51e531fd8f90da6d92ea83dc4125002f20ef","","0 ETH","0.00077014"
"0x7d82330b1362a193a8f2b28cca8d60f6fd3ea186dd6e91c08b6c112e90d1c8b3","Success","Update","15184479","2022-07-21 07:05:21","0x10121cb2b3f64f0a6231178336aca3e3b87d5ca5","","0x049b51e531fd8f90da6d92ea83dc4125002f20ef","","0 ETH","0.00111792"